100
32
19
5
30
7
5
10
5
17
25
25
20
11
21
26
11
12
23
30
31
26
10
20
27
21
22
15
24
22
22
31
4
13
32
18
3
19
6
29
9
32
17
10
11
29
10
32
23
24
26
19
29
21
11
31
21
1
5
9
31
23
8
31
20
18
28
1
7
29
3
29
3
3
17
9
6
18
5
19
10
11
20
30
16
22
4
22
6
17
14
32
27
19
29
25
22
32
12
27
20
18